File : Instances/p65
Use 138 s

26343

0 1 1 0 1 0 0 0 1 0 0 1 0 0 0 0 1 0 0 1 0 0 0 1 1 1 0 1 0 0 
27 19 2 27 2 11 2 27 27 27 4 19 23 1 19 11 1 8 27 27 27 16 23 24 23 27 27 19 4 2 19 19 4 16 27 19 8 8 24 16 25 8 19 4 8 19 8 2 19 19 24 16 24 16 8 19 11 8 27 25 4 2 25 8 8 11 23 19 19 25 25 11 19 8 23 23 8 23 8 16 23 2 8 25 4 23 19 2 27 25 11 19 25 25 2 1 11 11 2 11 19 16 25 25 4 24 4 24 27 1 19 4 27 11 11 8 11 25 19 8 8 11 27 19 4 16 2 11 19 2 11 24 25 8 23 8 1 8 11 23 11 27 11 11 25 2 24 16 27 25 24 23 23 24 8 11 2 16 8 1 1 27 23 24 23 27 23 4 1 2 1 8 19 23 4 2 24 23 4 23 2 16 2 19 11 8 11 23 27 2 2 2 19 4 25 11 25 2 23 19 
